
Gurobi 4.5.2 (linux64) logging started Wed Oct 12 17:33:29 2011


Gurobi 4.5.2 (linux64) logging started Wed Oct 12 17:36:30 2011

Warning: parameter changes on this environment will not affect existing models.
Optimize a model with 3 rows, 2 columns and 6 nonzeros
Presolve time: 0.00s
Presolved: 3 rows, 2 columns, 6 nonzeros
Variable types: 0 continuous, 2 integer (0 binary)
Found heuristic solution: objective -5208.000000

Root relaxation: objective -6.315625e+03, 2 iterations, 0.00 seconds

    Nodes    |    Current Node    |     Objective Bounds      |     Work
 Expl Unexpl |  Obj  Depth IntInf | Incumbent    BestBd   Gap | It/Node Time

     0     0 -6315.6250    0    2 -5208.0000 -6315.6250  21.3%     -    0s
H    0     0                    -6266.000000 -6315.6250  0.79%     -    0s
     0     0 -6315.6250    0    2 -6266.0000 -6315.6250  0.79%     -    0s

Explored 3 nodes (3 simplex iterations) in 0.00 seconds
Thread count was 4 (of 4 available processors)

Optimal solution found (tolerance 1.00e-04)
Best objective -6.266000000000e+03, best bound -6.266000000000e+03, gap 0.0%

Gurobi 4.5.2 (linux64) logging started Wed Oct 12 17:43:49 2011

Warning: parameter changes on this environment will not affect existing models.
Optimize a model with 3 rows, 2 columns and 6 nonzeros
Presolve time: 0.00s
Presolved: 3 rows, 2 columns, 6 nonzeros
Variable types: 0 continuous, 2 integer (0 binary)
Found heuristic solution: objective -5208.000000

Root relaxation: objective -6.315625e+03, 2 iterations, 0.00 seconds

    Nodes    |    Current Node    |     Objective Bounds      |     Work
 Expl Unexpl |  Obj  Depth IntInf | Incumbent    BestBd   Gap | It/Node Time

     0     0 -6315.6250    0    2 -5208.0000 -6315.6250  21.3%     -    0s
H    0     0                    -6266.000000 -6315.6250  0.79%     -    0s
     0     0 -6315.6250    0    2 -6266.0000 -6315.6250  0.79%     -    0s

Explored 3 nodes (3 simplex iterations) in 0.02 seconds
Thread count was 4 (of 4 available processors)

Optimal solution found (tolerance 1.00e-04)
Best objective -6.266000000000e+03, best bound -6.266000000000e+03, gap 0.0%
